J = 10;
M = 5;
machine = array2d(JOB, TASK, [
	2, 1, 5, 4, 3, 
	1, 4, 5, 3, 2, 
	4, 5, 2, 3, 1, 
	2, 1, 5, 3, 4, 
	1, 4, 3, 2, 5, 
	2, 3, 5, 1, 4, 
	4, 5, 2, 3, 1, 
	3, 1, 2, 4, 5, 
	4, 2, 5, 1, 3, 
	5, 4, 3, 2, 1
]);
duration = array2d(JOB, MACH, [
	21, 53, 95, 55, 34, 
	21, 52, 16, 26, 71, 
	39, 98, 42, 31, 12, 
	77, 55, 79, 66, 77, 
	83, 34, 64, 19, 37, 
	54, 43, 79, 92, 62, 
	69, 77, 87, 87, 93, 
	38, 60, 41, 24, 83, 
	17, 49, 25, 44, 98, 
	77, 79, 43, 75, 96
]);

%%% Esempio solo su Job 1
% Job 1 deve eseguire in ordine:
% su Mach 2 - 21t  o  53t
% su Mach 1 - 53t  o  21t
% su Mach 5 - 95t  o  34t
% su Mach 4 - 55t  o  55t
% su Mach 3 - 34t  o  95t
%
% esegue seguendo ordine 2-1-5-4-3
% -> Start[1,1] >= Start[1,2] + duration[1,2]
% --> start_time[job 1,machine 1] >= start_time[job 1,machine 2] 
%     + duration[job 1,machine 2]
%
% ---> il tempo di inizio del job 1 sulla machine 1 deve essere 
%      >= del tempo di inizio del job 1 sulla machine 2 + la 
%      durata del job 1 dulla machine 2  
%
% -> S[1,5] >= S[1,1] + d[1,1]
% -> S[1,4] >= S[1,5] + d[1,5]
% -> S[1,3] >= S[1,4] + d[1,4]
%
% ogni riga della prima tabella indica l'ordine in cui le mach
% vengono chiamate dal job, la tabella 2 indica quanto occupa 
% in ciascuna mach il job.
%
% La tabella 2 segue l'ordine della tabella 1 oppure segue 
% l'ordine crescente (1..5)?